certificates/rado_a13_c291_N38.drat
22 -34 -37 -38 0
-22 -36 -37 -38 0
22 -37 -38 0
d 22 -34 -37 -38 0
24 32 0
-37 -38 0
d 22 -37 -38 0
-24 -38 0
-22 -38 0
d -22 -36 -37 -38 0
-38 0
24 0
-3 0
21 0
-6 0
22 0
-17 0
-27 0
-1 0
-19 0
-29 0
-26 0
-16 0
-4 0
23 0
25 0
-15 0
-30 0
-31 0
-32 0
-28 0
-14 0
-18 0
-2 0
-13 0
-5 0
-7 0
-20 0
-33 0
0
